
(set-logic BV)

(define-fun shr1 ((x (BitVec 64))) (BitVec 64) (bvlshr x #x0000000000000001))
(define-fun shr4 ((x (BitVec 64))) (BitVec 64) (bvlshr x #x0000000000000004))
(define-fun shr16 ((x (BitVec 64))) (BitVec 64) (bvlshr x #x0000000000000010))
(define-fun shl1 ((x (BitVec 64))) (BitVec 64) (bvshl x #x0000000000000001))
(define-fun if0 ((x (BitVec 64)) (y (BitVec 64)) (z (BitVec 64))) (BitVec 64) (ite (= x #x0000000000000001) y z))
(define-fun func23  ((A (BitVec 64)) (B (BitVec 64)) (C (BitVec 64)) (D (BitVec 64)) ) (BitVec 64) (bvand (bvlshr (bvlshr C  D ) B ) A ))
(define-fun func24  ((A (BitVec 64)) (B (BitVec 64)) (C (BitVec 64)) ) (BitVec 64) (bvand (bvlshr B  C ) A ))
(define-fun func25  ((A (BitVec 64)) (B (BitVec 64)) ) (BitVec 64) (bvand (bvlshr B  #x0000000000000001 ) A ))
(define-fun func26  ((A (BitVec 64)) (B (BitVec 64)) ) (BitVec 64) (bvand (bvlshr B  #x0000000000000010 ) A ))
(define-fun func27  ((A (BitVec 64)) (B (BitVec 64)) ) (BitVec 64) (bvand (bvlshr B  #x0000000000000004 ) A ))
(define-fun func28  ((A (BitVec 64)) (B (BitVec 64)) ) (BitVec 64) (bvand (bvlshr A  B ) #x0000000000000001 ))
(define-fun func29  ((A (BitVec 64)) ) (BitVec 64) (bvand A  #x0000000000000001 ))
(define-fun func30  ((A (BitVec 64)) (B (BitVec 64)) (C (BitVec 64)) (D (BitVec 64)) ) (BitVec 64) (bvlshr (bvlshr (bvlshr C  D ) B ) A ))
(define-fun func31  ((A (BitVec 64)) (B (BitVec 64)) (C (BitVec 64)) ) (BitVec 64) (bvlshr (bvlshr (bvlshr B  C ) A ) #x0000000000000004 ))
(define-fun func32  ((A (BitVec 64)) (B (BitVec 64)) (C (BitVec 64)) ) (BitVec 64) (bvlshr (bvlshr (bvlshr C  #x0000000000000010 ) B ) A ))
(define-fun func33  ((A (BitVec 64)) (B (BitVec 64)) (C (BitVec 64)) ) (BitVec 64) (bvlshr (bvlshr (bvlshr B  C ) #x0000000000000004 ) A ))
(define-fun func34  ((A (BitVec 64)) (B (BitVec 64)) (C (BitVec 64)) ) (BitVec 64) (bvlshr (bvlshr B  C ) A ))
(define-fun func35  ((A (BitVec 64)) (B (BitVec 64)) ) (BitVec 64) (bvlshr (bvlshr B  #x0000000000000010 ) A ))
(define-fun func36  ((A (BitVec 64)) (B (BitVec 64)) ) (BitVec 64) (bvlshr (bvlshr B  #x0000000000000004 ) A ))
(define-fun func37  ((A (BitVec 64)) (B (BitVec 64)) ) (BitVec 64) (bvlshr (bvlshr B  #x0000000000000001 ) A ))
(define-fun func38  ((A (BitVec 64)) (B (BitVec 64)) ) (BitVec 64) (bvlshr (bvlshr A  B ) #x0000000000000001 ))
(define-fun func39  ((A (BitVec 64)) (B (BitVec 64)) ) (BitVec 64) (bvlshr (bvlshr A  B ) #x0000000000000004 ))
(define-fun func40  ((A (BitVec 64)) (B (BitVec 64)) ) (BitVec 64) (bvlshr A  B ))
(define-fun func41  ((A (BitVec 64)) (B (BitVec 64)) (C (BitVec 64)) ) (BitVec 64) (bvlshr (bvshl B  C ) A ))
(define-fun func42  ((A (BitVec 64)) (B (BitVec 64)) ) (BitVec 64) (bvlshr (bvshl B  #x0000000000000001 ) A ))
(define-fun func43  ((A (BitVec 64)) (B (BitVec 64)) (C (BitVec 64)) ) (BitVec 64) (bvlshr (bvadd B  C ) A ))
(define-fun func44  ((A (BitVec 64)) (B (BitVec 64)) ) (BitVec 64) (bvlshr (bvnot B ) A ))
(define-fun func45  ((A (BitVec 64)) ) (BitVec 64) (bvlshr (bvnot A ) #x0000000000000010 ))
(define-fun func46  ((A (BitVec 64)) (B (BitVec 64)) (C (BitVec 64)) ) (BitVec 64) (bvor (bvlshr B  C ) A ))
(define-fun func47  ((A (BitVec 64)) ) (BitVec 64) (bvor A  #x0000000000000001 ))
(define-fun func48  ((A (BitVec 64)) (B (BitVec 64)) (C (BitVec 64)) ) (BitVec 64) (bvshl (bvlshr B  C ) A ))
(define-fun func49  ((A (BitVec 64)) (B (BitVec 64)) ) (BitVec 64) (bvshl (bvlshr B  #x0000000000000001 ) A ))
(define-fun func50  ((A (BitVec 64)) (B (BitVec 64)) ) (BitVec 64) (bvshl (bvlshr A  B ) #x0000000000000001 ))
(define-fun func52  ((A (BitVec 64)) (B (BitVec 64)) (C (BitVec 64)) ) (BitVec 64) (bvadd (bvlshr B  C ) A ))
(define-fun func53  ((A (BitVec 64)) ) (BitVec 64) (bvadd A  #x0000000000000001 ))
(define-fun func54  ((A (BitVec 64)) (B (BitVec 64)) (C (BitVec 64)) ) (BitVec 64) (bvadd (bvshl B  C ) A ))
(define-fun func55  ((A (BitVec 64)) (B (BitVec 64)) ) (BitVec 64) (bvadd (bvshl B  #x0000000000000001 ) A ))
(define-fun func56  ((A (BitVec 64)) ) (BitVec 64) (bvnot (bvshl A  #x0000000000000001 )))
(synth-fun f ( (x (BitVec 64))) (BitVec 64)
(
(Start (BitVec 64) (
   #x0000000000000000
   #x0000000000000001
   x
   (func25 Start Start)
   (func27 Start Start)
   (func28 Start Start)
   (func30 Start Start Start Start)
   (func33 Start Start Start)
   (func36 Start Start)
   (func41 Start Start Start)
   (func42 Start Start)
   (func43 Start Start Start)
   (func46 Start Start Start)
   (func47 Start)
   (func48 Start Start Start)
   (func52 Start Start Start)
   (func54 Start Start Start)
   (func55 Start Start)
   (func56 Start)
   (shl1 Start)
   (shr4 Start)
   (shr16 Start)
   (bvxor Start Start)
   (if0 Start Start Start)
))
))
(constraint (= (f #xa779c9e4e05c74ba) #xb10c6c363f47168b))
(constraint (= (f #xadaa214653f0c07d) #xa4abbd73581e7f05))
(constraint (= (f #x4ab18d0782e42ffa) #x6a9ce5f0fa37a00b))
(constraint (= (f #xfc5acc9b39729d7b) #x074a66c98d1ac509))
(constraint (= (f #xd36b434e5d2b639f) #x5929796345a938c1))
(constraint (= (f #xfffffffffffffffd) #x0000000000000005))
(constraint (= (f #xfffffffffffffffc) #x0000000000000007))
(constraint (= (f #x6c4974141df19f35) #xfffffffffffffffe))
(constraint (= (f #x8b785d4bfb50c296) #xffffffffffffffff))
(constraint (= (f #x3cac8e8727943850) #xffffffffffffffff))
(constraint (= (f #xcd370b220fa321f2) #xffffffffffffffff))
(constraint (= (f #x2841abfc4aad4ed5) #xfffffffffffffffe))
(constraint (= (f #xfffffffffffe901b) #x0000000000016fe4))
(constraint (= (f #xfffffffffffe9878) #x0000000000016787))
(constraint (= (f #xfffffffffffe7f3a) #x00000000000180c5))
(constraint (= (f #xfffffffffffef83b) #x00000000000107c4))
(constraint (= (f #xfffffffffffe9abb) #x0000000000016544))
(constraint (= (f #x39087593a57f2aa8) #x8def14d8b501aaaf))
(constraint (= (f #xd144536172387dae) #x5d77593d1b8f04a3))
(constraint (= (f #xfcc3e41baf6e3b6b) #x067837c8a1238929))
(constraint (= (f #x2f6786708c59a3ab) #xa130f31ee74cb8a9))
(constraint (= (f #x2dbc20687426768a) #xa487bf2f17b312eb))
(constraint (= (f #xfffffffffffee493) #xfffffffffffffffe))
(constraint (= (f #xfffffffffffe3670) #xffffffffffffffff))
(constraint (= (f #xfffffffffffe15d3) #xfffffffffffffffe))
(constraint (= (f #xfffffffffffe9651) #xfffffffffffffffe))
(constraint (= (f #xfffffffffffe6233) #xfffffffffffffffe))
(constraint (= (f #x2948b9f799a98103) #xfffffffffffffffe))
(constraint (= (f #xa1c046821c0428c1) #xfffffffffffffffe))
(constraint (= (f #x16feaf19b123a8a4) #xffffffffffffffff))
(constraint (= (f #x68fd55a537df8a80) #xffffffffffffffff))
(constraint (= (f #x5991e0923ded2ca4) #xffffffffffffffff))
(constraint (= (f #xfffffffffffe6aca) #x0000000000019535))
(constraint (= (f #xfffffffffffe9608) #x00000000000169f7))
(constraint (= (f #xfffffffffffe4cce) #x000000000001b331))
(constraint (= (f #xfffffffffffe6da8) #x0000000000019257))
(constraint (= (f #xfffffffffffe058d) #x000000000001fa72))
(constraint (= (f #xfffffffffffe1805) #xfffffffffffffffe))
(constraint (= (f #xfffffffffffe9d44) #xffffffffffffffff))
(constraint (= (f #xfffffffffffe7546) #xffffffffffffffff))
(constraint (= (f #xfffffffffffe3fc0) #xffffffffffffffff))
(constraint (= (f #xfffffffffffe9844) #xffffffffffffffff))
(constraint (= (f #x1dea8379eebdceb0) #xffffffffffffffff))
(constraint (= (f #x2abc048154191b93) #xfffffffffffffffe))
(constraint (= (f #xa8472bd3838ebdc8) #xaf71a858f8e2846f))
(constraint (= (f #x20ed136260d51b5a) #xbe25d93b3e55c94b))
(constraint (= (f #xe1ba389d81122339) #x3c8b8ec4fddbb98d))
(constraint (= (f #xed72e6e97c80ec49) #x251a322d06fe276d))
(constraint (= (f #x2bab98ddb4a69d3d) #xa8a8ce4496b2c585))
(constraint (= (f #x1ebb8ac38e903975) #xfffffffffffffffe))
(constraint (= (f #x6507809ee4ccee86) #xffffffffffffffff))
(constraint (= (f #x1a1b7cde82e79eb1) #xfffffffffffffffe))
(constraint (= (f #xfffffffffffed09e) #x0000000000012f61))
(constraint (= (f #xfffffffffffe788f) #x0000000000018770))
(constraint (= (f #xfffffffffffecd43) #xfffffffffffffffe))
(constraint (= (f #xfffffffffffe8825) #xfffffffffffffffe))
(constraint (= (f #xfffffffffffe3149) #x000000000001ceb6))
(constraint (= (f #xfffffffffffe4bfe) #x000000000001b401))
(constraint (= (f #xfffffffffffec920) #xffffffffffffffff))
(constraint (= (f #x2260ef13b8ce6894) #xffffffffffffffff))
(constraint (= (f #xfffffffffffe0dc4) #xffffffffffffffff))
(constraint (= (f #xfffffffffffeea35) #xfffffffffffffffe))
(constraint (= (f #xfffffffffffebbf0) #xffffffffffffffff))
(constraint (= (f #xfffffffffffeed18) #x00000000000112e7))
(constraint (= (f #xfffffffffffe4cf7) #xfffffffffffffffe))
(constraint (= (f #xfffffffffffe50b2) #xffffffffffffffff))
(constraint (= (f #x183a5523d96fb5e1) #xfffffffffffffffe))
(constraint (= (f #x05f544819b1d3229) #xf41576fcc9c59bad))
(constraint (= (f #xaee7886ac5ecc1ef) #xa230ef2a74267c21))
(constraint (= (f #x28f5f3b93e6a0941) #xfffffffffffffffe))
(constraint (= (f #xaab5d0970b83e12e) #xaa945ed1e8f83da3))
(constraint (= (f #xbc3a2ea5201b9c2d) #x878ba2b5bfc8c7a5))
(check-synth)
